% MIT License
%
% Copyright (c) 2021 Johan Ludde Wessén
%
% Permission is hereby granted, free of charge, to any person obtaining 
% a copy of this software and associated documentation files (the "Software"),
% to deal in the Software without restriction, including without limitation 
% the rights to use, copy, modify, merge, publish, distribute, sublicense, 
% and/or sell copies of the Software, and to permit persons to whom the 
% Software is furnished to do so, subject to the following conditions:
% 
% The above copyright notice and this permission notice shall be included 
% in all copies or substantial portions of the Software.
%
% THE SOFTWARE IS PROVIDED "AS IS", WITHOUT WARRANTY OF ANY KIND, 
% EXPRESS OR IMPLIED, INCLUDING BUT NOT LIMITED TO THE WARRANTIES OF
% MERCHANTABILITY, FITNESS FOR A PARTICULAR PURPOSE AND
% NONINFRINGEMENT. IN NO EVENT SHALL THE AUTHORS OR COPYRIGHT HOLDERS BE
% LIABLE FOR ANY CLAIM, DAMAGES OR OTHER LIABILITY, WHETHER IN AN ACTION
% OF CONTRACT, TORT OR OTHERWISE, ARISING FROM, OUT OF OR IN CONNECTION
% WITH THE SOFTWARE OR THE USE OR OTHER DEALINGS IN THE SOFTWARE.

%-----------------------------------------------------------------------------%
% Dual Arm Multi Capacity Multi Tool Scheduling / Routing
% Assembly Configuration
% Auto Generated by python script, authored by Johan Ludde Wessen 
%-----------------------------------------------------------------------------%


task_durations = [|22, 23, 29, 28, 26, 25, 29, 25, 26, 22, 44, 47, 55, 48, 57, 51, 57, 45, 44, 50, 33, 26, 32, 29, 34, 36, 32, 32,  6,  7,  5,  6,  7,  5,  6,  6,  7
                  |21, 25, 31, 25, 24, 22, 28, 27, 23, 20, 56, 47, 48, 47, 52, 58, 59, 45, 44, 46, 27, 30, 30, 25, 34, 33, 33, 29,  6,  6,  6,  7,  6,  6,  7,  6,  5
                  |];


TRAY_TASKS = 1..8;
CAMERA_TASKS = 21..28;
OUTPUT_TASKS = { 20 };


empty_gripper_tasks = 29..37;


gripper_pick_tasks_orders = [|9, 19, -1
|10, 20, -1
|];

suction_pick_tasks_orders = [|1, 21, 11, -1
|2, 22, 12, -1
|3, 23, 13, -1
|4, 24, 14, -1
|5, 25, 15, -1
|6, 26, 16, -1
|7, 27, 17, -1
|8, 28, 18, -1
|];

fixture_task_orders = [|11, 29, 12, 30, 13, 31, 14, 32, 15, 33, 9, -1
|16, 34, 17, 35, 18, 36, 19, 37, 10, -1, -1, -1
|];

